c Random generated cnf formula, satisfiable: false
p cnf 10 50
10 -9 -6 0
8 -3 -10 0
9 6 -5 0
3 7 -1 0
4 2 -10 0
10 4 6 0
7 -5 2 0
-3 4 2 0
2 -10 -3 0
8 -10 -1 0
3 -2 9 0
-7 9 -5 0
5 -4 3 0
2 -5 10 0
10 3 -8 0
10 5 1 0
7 -3 -5 0
5 6 -2 0
10 -9 2 0
-2 9 -4 0
6 -9 -7 0
1 8 -2 0
9 -10 3 0
3 -5 -1 0
3 -4 -2 0
-7 1 -9 0
-10 1 7 0
-9 5 6 0
10 4 -5 0
-4 -6 -9 0
5 1 -8 0
4 -5 -9 0
10 -2 6 0
-7 9 -5 0
-7 3 -9 0
-5 -9 3 0
4 -5 -10 0
10 -9 -4 0
3 -2 6 0
-3 -6 -7 0
2 -4 9 0
9 -6 7 0
4 -1 -6 0
3 -6 5 0
-8 5 -2 0
-1 -3 10 0
3 7 -1 0
7 4 -6 0
1 -2 5 0
10 3 -1 0
